W=6;
H=5;

MAX_TIME=25;
MAX_TRACKS=11;

TARGET=(3,6);

TRAINS=[(2,1,RIGHT),(5,1,RIGHT)];
DECOYS=[];

INIT_POS=[
(1,4,STRAIGHT_RL),
(1,5,STRAIGHT_RL),
(2,1,STRAIGHT_RL),
(3,3,ESWITCH_D_T_L),
(3,5,STRAIGHT_RL),
(3,6,STRAIGHT_RL),
(5,1,STRAIGHT_RL),
(5,2,STRAIGHT_RL),
];
TUNNEL_PAIRS=[
  (1, 3, RIGHT, 5, 3, LEFT),
];

GATES=[
(1,5,1,false),
];
ACTIVATIONS=[
(3,5,1),
];

DSWITCHES=[];
STATIONS=[];

SEMAPHORE_SUPPLY=0;
